(set-logic ALL)
(declare-const GEN1 Int)
(declare-const GEN2 Int)
(declare-const GEN3 Int)
(declare-const BAV4 Bool)
(declare-const BAV5 Bool)
(declare-const BAV6 Bool)
(declare-fun a () Real)
(declare-fun b () Real)
(declare-fun c () Real)
(assert (> c GEN1))
(assert (> (* a b) GEN2))
(assert (< (* a b c) GEN3))
(assert (= BAV4 (> c GEN1)))
(assert (= BAV5 (> (* a b) GEN2)))
(assert (= BAV6 (< (* a b c) GEN3)))
(check-sat)
(get-model)